p cnf 963 2472
51 -2 -696 0
-51 2 0
-51 696 0
52 -51 -697 0
-52 51 0
-52 697 0
53 -5 -4 0
-53 5 0
-53 4 0
54 -53 -698 0
-54 53 0
-54 698 0
55 -699 -700 0
-55 699 0
-55 700 0
56 -701 -702 0
-56 701 0
-56 702 0
57 -56 -703 0
-57 56 0
-57 703 0
58 -704 -55 0
-58 704 0
-58 55 0
59 -705 -706 0
-59 705 0
-59 706 0
60 -59 -11 0
-60 59 0
-60 11 0
61 -707 -58 0
-61 707 0
-61 58 0
62 -708 -5 0
-62 708 0
-62 5 0
63 -62 -13 0
-63 62 0
-63 13 0
64 -709 -61 0
-64 709 0
-64 61 0
65 -710 -14 0
-65 710 0
-65 14 0
66 -65 -1 0
-66 65 0
-66 1 0
67 -711 -64 0
-67 711 0
-67 64 0
68 -17 -712 0
-68 17 0
-68 712 0
69 -68 -703 0
-69 68 0
-69 703 0
70 -713 -67 0
-70 713 0
-70 67 0
71 -714 -715 0
-71 714 0
-71 715 0
72 -71 -13 0
-72 71 0
-72 13 0
73 -716 -70 0
-73 716 0
-73 70 0
74 -20 -16 0
-74 20 0
-74 16 0
75 -74 -717 0
-75 74 0
-75 717 0
76 -718 -73 0
-76 718 0
-76 73 0
77 -23 -22 0
-77 23 0
-77 22 0
78 -77 -24 0
-78 77 0
-78 24 0
79 -719 -76 0
-79 719 0
-79 76 0
80 -720 -706 0
-80 720 0
-80 706 0
81 -80 -10 0
-81 80 0
-81 10 0
82 -721 -79 0
-82 721 0
-82 79 0
83 -722 -723 0
-83 722 0
-83 723 0
84 -83 -24 0
-84 83 0
-84 24 0
85 -724 -82 0
-85 724 0
-85 82 0
86 -20 -714 0
-86 20 0
-86 714 0
87 -86 -23 0
-87 86 0
-87 23 0
88 -725 -85 0
-88 725 0
-88 85 0
89 -726 -16 0
-89 726 0
-89 16 0
90 -89 -21 0
-90 89 0
-90 21 0
91 -727 -88 0
-91 727 0
-91 88 0
92 -29 -728 0
-92 29 0
-92 728 0
93 -92 -30 0
-93 92 0
-93 30 0
94 -729 -91 0
-94 729 0
-94 91 0
95 -730 -731 0
-95 730 0
-95 731 0
96 -95 -33 0
-96 95 0
-96 33 0
97 -732 -94 0
-97 732 0
-97 94 0
98 -34 -32 0
-98 34 0
-98 32 0
99 -98 -35 0
-99 98 0
-99 35 0
100 -733 -97 0
-100 733 0
-100 97 0
101 -734 -5 0
-101 734 0
-101 5 0
102 -101 -11 0
-102 101 0
-102 11 0
103 -735 -100 0
-103 735 0
-103 100 0
104 -36 -736 0
-104 36 0
-104 736 0
105 -104 -701 0
-105 104 0
-105 701 0
106 -737 -103 0
-106 737 0
-106 103 0
107 -35 -8 0
-107 35 0
-107 8 0
108 -107 -17 0
-108 107 0
-108 17 0
109 -738 -106 0
-109 738 0
-109 106 0
110 -697 -2 0
-110 697 0
-110 2 0
111 -110 -37 0
-111 110 0
-111 37 0
112 -739 -109 0
-112 739 0
-112 109 0
113 -18 -702 0
-113 18 0
-113 702 0
114 -113 -740 0
-114 113 0
-114 740 0
115 -741 -112 0
-115 741 0
-115 112 0
116 -32 -742 0
-116 32 0
-116 742 0
117 -116 -11 0
-117 116 0
-117 11 0
118 -743 -115 0
-118 743 0
-118 115 0
119 -744 -708 0
-119 744 0
-119 708 0
120 -119 -28 0
-120 119 0
-120 28 0
121 -745 -118 0
-121 745 0
-121 118 0
122 -40 -36 0
-122 40 0
-122 36 0
123 -122 -728 0
-123 122 0
-123 728 0
124 -746 -121 0
-124 746 0
-124 121 0
125 -747 -40 0
-125 747 0
-125 40 0
126 -125 -2 0
-126 125 0
-126 2 0
127 -748 -124 0
-127 748 0
-127 124 0
128 -26 -698 0
-128 26 0
-128 698 0
129 -128 -28 0
-129 128 0
-129 28 0
130 -749 -127 0
-130 749 0
-130 127 0
131 -731 -702 0
-131 731 0
-131 702 0
132 -131 -20 0
-132 131 0
-132 20 0
133 -750 -130 0
-133 750 0
-133 130 0
134 -731 -22 0
-134 731 0
-134 22 0
135 -134 -751 0
-135 134 0
-135 751 0
136 -752 -133 0
-136 752 0
-136 133 0
137 -16 -720 0
-137 16 0
-137 720 0
138 -137 -1 0
-138 137 0
-138 1 0
139 -753 -136 0
-139 753 0
-139 136 0
140 -33 -15 0
-140 33 0
-140 15 0
141 -140 -754 0
-141 140 0
-141 754 0
142 -755 -139 0
-142 755 0
-142 139 0
143 -20 -708 0
-143 20 0
-143 708 0
144 -143 -756 0
-144 143 0
-144 756 0
145 -757 -142 0
-145 757 0
-145 142 0
146 -731 -708 0
-146 731 0
-146 708 0
147 -146 -758 0
-147 146 0
-147 758 0
148 -759 -145 0
-148 759 0
-148 145 0
149 -751 -16 0
-149 751 0
-149 16 0
150 -149 -44 0
-150 149 0
-150 44 0
151 -760 -148 0
-151 760 0
-151 148 0
152 -758 -20 0
-152 758 0
-152 20 0
153 -152 -38 0
-153 152 0
-153 38 0
154 -761 -151 0
-154 761 0
-154 151 0
155 -740 -31 0
-155 740 0
-155 31 0
156 -155 -696 0
-156 155 0
-156 696 0
157 -762 -154 0
-157 762 0
-157 154 0
158 -751 -708 0
-158 751 0
-158 708 0
159 -158 -723 0
-159 158 0
-159 723 0
160 -763 -157 0
-160 763 0
-160 157 0
161 -747 -25 0
-161 747 0
-161 25 0
162 -161 -16 0
-162 161 0
-162 16 0
163 -764 -160 0
-163 764 0
-163 160 0
164 -40 -715 0
-164 40 0
-164 715 0
165 -164 -756 0
-165 164 0
-165 756 0
166 -765 -163 0
-166 765 0
-166 163 0
167 -751 -17 0
-167 751 0
-167 17 0
168 -167 -766 0
-168 167 0
-168 766 0
169 -767 -166 0
-169 767 0
-169 166 0
170 -37 -29 0
-170 37 0
-170 29 0
171 -170 -754 0
-171 170 0
-171 754 0
172 -768 -169 0
-172 768 0
-172 169 0
173 -769 -16 0
-173 769 0
-173 16 0
174 -173 -703 0
-174 173 0
-174 703 0
175 -770 -172 0
-175 770 0
-175 172 0
176 -14 -702 0
-176 14 0
-176 702 0
177 -176 -46 0
-177 176 0
-177 46 0
178 -771 -175 0
-178 771 0
-178 175 0
179 -16 -754 0
-179 16 0
-179 754 0
180 -179 -11 0
-180 179 0
-180 11 0
181 -772 -178 0
-181 772 0
-181 178 0
182 -773 -22 0
-182 773 0
-182 22 0
183 -182 -30 0
-183 182 0
-183 30 0
184 -774 -181 0
-184 774 0
-184 181 0
185 -730 -701 0
-185 730 0
-185 701 0
186 -185 -773 0
-186 185 0
-186 773 0
187 -775 -184 0
-187 775 0
-187 184 0
188 -45 -776 0
-188 45 0
-188 776 0
189 -188 -30 0
-189 188 0
-189 30 0
190 -777 -187 0
-190 777 0
-190 187 0
191 -20 -4 0
-191 20 0
-191 4 0
192 -191 -8 0
-192 191 0
-192 8 0
193 -778 -190 0
-193 778 0
-193 190 0
194 -758 -734 0
-194 758 0
-194 734 0
195 -194 -779 0
-195 194 0
-195 779 0
196 -780 -193 0
-196 780 0
-196 193 0
197 -747 -730 0
-197 747 0
-197 730 0
198 -197 -47 0
-198 197 0
-198 47 0
199 -781 -196 0
-199 781 0
-199 196 0
200 -782 -32 0
-200 782 0
-200 32 0
201 -200 -44 0
-201 200 0
-201 44 0
202 -783 -199 0
-202 783 0
-202 199 0
203 -33 -696 0
-203 33 0
-203 696 0
204 -203 -784 0
-204 203 0
-204 784 0
205 -785 -202 0
-205 785 0
-205 202 0
206 -720 -696 0
-206 720 0
-206 696 0
207 -206 -17 0
-207 206 0
-207 17 0
208 -786 -205 0
-208 786 0
-208 205 0
209 -32 -25 0
-209 32 0
-209 25 0
210 -209 -29 0
-210 209 0
-210 29 0
211 -787 -208 0
-211 787 0
-211 208 0
212 -702 -6 0
-212 702 0
-212 6 0
213 -212 -703 0
-213 212 0
-213 703 0
214 -788 -211 0
-214 788 0
-214 211 0
215 -20 -2 0
-215 20 0
-215 2 0
216 -215 -30 0
-216 215 0
-216 30 0
217 -789 -214 0
-217 789 0
-217 214 0
218 -790 -4 0
-218 790 0
-218 4 0
219 -218 -17 0
-219 218 0
-219 17 0
220 -791 -217 0
-220 791 0
-220 217 0
221 -744 -715 0
-221 744 0
-221 715 0
222 -221 -8 0
-222 221 0
-222 8 0
223 -792 -220 0
-223 792 0
-223 220 0
224 -793 -25 0
-224 793 0
-224 25 0
225 -224 -37 0
-225 224 0
-225 37 0
226 -794 -223 0
-226 794 0
-226 223 0
227 -730 -3 0
-227 730 0
-227 3 0
228 -227 -795 0
-228 227 0
-228 795 0
229 -796 -226 0
-229 796 0
-229 226 0
230 -782 -4 0
-230 782 0
-230 4 0
231 -230 -769 0
-231 230 0
-231 769 0
232 -797 -229 0
-232 797 0
-232 229 0
233 -747 -2 0
-233 747 0
-233 2 0
234 -233 -44 0
-234 233 0
-234 44 0
235 -798 -232 0
-235 798 0
-235 232 0
236 -723 -720 0
-236 723 0
-236 720 0
237 -236 -27 0
-237 236 0
-237 27 0
238 -799 -235 0
-238 799 0
-238 235 0
239 -793 -736 0
-239 793 0
-239 736 0
240 -239 -740 0
-240 239 0
-240 740 0
241 -800 -238 0
-241 800 0
-241 238 0
242 -128 -35 0
-242 128 0
-242 35 0
243 -801 -241 0
-243 801 0
-243 241 0
244 -39 -28 0
-244 39 0
-244 28 0
245 -244 -29 0
-245 244 0
-245 29 0
246 -802 -243 0
-246 802 0
-246 243 0
247 -758 -39 0
-247 758 0
-247 39 0
248 -247 -717 0
-248 247 0
-248 717 0
249 -803 -246 0
-249 803 0
-249 246 0
250 -751 -10 0
-250 751 0
-250 10 0
251 -250 -47 0
-251 250 0
-251 47 0
252 -804 -249 0
-252 804 0
-252 249 0
253 -717 -795 0
-253 717 0
-253 795 0
254 -253 -766 0
-254 253 0
-254 766 0
255 -805 -252 0
-255 805 0
-255 252 0
256 -714 -5 0
-256 714 0
-256 5 0
257 -256 -21 0
-257 256 0
-257 21 0
258 -806 -255 0
-258 806 0
-258 255 0
259 -39 -18 0
-259 39 0
-259 18 0
260 -259 -754 0
-260 259 0
-260 754 0
261 -807 -258 0
-261 807 0
-261 258 0
262 -730 -23 0
-262 730 0
-262 23 0
263 -262 -49 0
-263 262 0
-263 49 0
264 -808 -261 0
-264 808 0
-264 261 0
265 -49 -751 0
-265 49 0
-265 751 0
266 -265 -754 0
-266 265 0
-266 754 0
267 -809 -264 0
-267 809 0
-267 264 0
268 -706 -2 0
-268 706 0
-268 2 0
269 -268 -703 0
-269 268 0
-269 703 0
270 -810 -267 0
-270 810 0
-270 267 0
271 -708 -7 0
-271 708 0
-271 7 0
272 -271 -811 0
-272 271 0
-272 811 0
273 -812 -270 0
-273 812 0
-273 270 0
274 -723 -790 0
-274 723 0
-274 790 0
275 -274 -49 0
-275 274 0
-275 49 0
276 -813 -273 0
-276 813 0
-276 273 0
277 -35 -731 0
-277 35 0
-277 731 0
278 -277 -50 0
-278 277 0
-278 50 0
279 -814 -276 0
-279 814 0
-279 276 0
280 -122 -48 0
-280 122 0
-280 48 0
281 -815 -279 0
-281 815 0
-281 279 0
282 -715 -710 0
-282 715 0
-282 710 0
283 -282 -816 0
-283 282 0
-283 816 0
284 -817 -281 0
-284 817 0
-284 281 0
285 -20 -11 0
-285 20 0
-285 11 0
286 -285 -818 0
-286 285 0
-286 818 0
287 -819 -284 0
-287 819 0
-287 284 0
288 -820 -717 0
-288 820 0
-288 717 0
289 -288 -703 0
-289 288 0
-289 703 0
290 -821 -287 0
-290 821 0
-290 287 0
291 -698 -4 0
-291 698 0
-291 4 0
292 -291 -41 0
-292 291 0
-292 41 0
293 -822 -290 0
-293 822 0
-293 290 0
294 -728 -13 0
-294 728 0
-294 13 0
295 -294 -21 0
-295 294 0
-295 21 0
296 -823 -293 0
-296 823 0
-296 293 0
297 -46 -731 0
-297 46 0
-297 731 0
298 -297 -21 0
-298 297 0
-298 21 0
299 -824 -296 0
-299 824 0
-299 296 0
300 -28 -706 0
-300 28 0
-300 706 0
301 -300 -756 0
-301 300 0
-301 756 0
302 -825 -299 0
-302 825 0
-302 299 0
303 -731 -5 0
-303 731 0
-303 5 0
304 -303 -43 0
-304 303 0
-304 43 0
305 -826 -302 0
-305 826 0
-305 302 0
306 -38 -795 0
-306 38 0
-306 795 0
307 -306 -30 0
-307 306 0
-307 30 0
308 -827 -305 0
-308 827 0
-308 305 0
309 -712 -705 0
-309 712 0
-309 705 0
310 -309 -3 0
-310 309 0
-310 3 0
311 -828 -308 0
-311 828 0
-311 308 0
312 -46 -1 0
-312 46 0
-312 1 0
313 -312 -829 0
-313 312 0
-313 829 0
314 -830 -311 0
-314 830 0
-314 311 0
315 -831 -7 0
-315 831 0
-315 7 0
316 -315 -714 0
-316 315 0
-316 714 0
317 -832 -314 0
-317 832 0
-317 314 0
318 -40 -706 0
-318 40 0
-318 706 0
319 -318 -23 0
-319 318 0
-319 23 0
320 -833 -317 0
-320 833 0
-320 317 0
321 -740 -37 0
-321 740 0
-321 37 0
322 -321 -756 0
-322 321 0
-322 756 0
323 -834 -320 0
-323 834 0
-323 320 0
324 -730 -5 0
-324 730 0
-324 5 0
325 -324 -11 0
-325 324 0
-325 11 0
326 -835 -323 0
-326 835 0
-326 323 0
327 -18 -15 0
-327 18 0
-327 15 0
328 -327 -697 0
-328 327 0
-328 697 0
329 -836 -326 0
-329 836 0
-329 326 0
330 -43 -22 0
-330 43 0
-330 22 0
331 -330 -17 0
-331 330 0
-331 17 0
332 -837 -329 0
-332 837 0
-332 329 0
333 -820 -706 0
-333 820 0
-333 706 0
334 -333 -24 0
-334 333 0
-334 24 0
335 -838 -332 0
-335 838 0
-335 332 0
336 -697 -696 0
-336 697 0
-336 696 0
337 -336 -49 0
-337 336 0
-337 49 0
338 -839 -335 0
-338 839 0
-338 335 0
339 -20 -720 0
-339 20 0
-339 720 0
340 -339 -840 0
-340 339 0
-340 840 0
341 -841 -338 0
-341 841 0
-341 338 0
342 -28 -723 0
-342 28 0
-342 723 0
343 -342 -35 0
-343 342 0
-343 35 0
344 -842 -341 0
-344 842 0
-344 341 0
345 -758 -27 0
-345 758 0
-345 27 0
346 -345 -23 0
-346 345 0
-346 23 0
347 -843 -344 0
-347 843 0
-347 344 0
348 -23 -1 0
-348 23 0
-348 1 0
349 -348 -776 0
-349 348 0
-349 776 0
350 -844 -347 0
-350 844 0
-350 347 0
351 -10 -8 0
-351 10 0
-351 8 0
352 -351 -811 0
-352 351 0
-352 811 0
353 -845 -350 0
-353 845 0
-353 350 0
354 -25 -696 0
-354 25 0
-354 696 0
355 -354 -816 0
-355 354 0
-355 816 0
356 -846 -353 0
-356 846 0
-356 353 0
357 -32 -754 0
-357 32 0
-357 754 0
358 -357 -816 0
-358 357 0
-358 816 0
359 -847 -356 0
-359 847 0
-359 356 0
360 -39 -740 0
-360 39 0
-360 740 0
361 -360 -816 0
-361 360 0
-361 816 0
362 -848 -359 0
-362 848 0
-362 359 0
363 -776 -736 0
-363 776 0
-363 736 0
364 -363 -756 0
-364 363 0
-364 756 0
365 -849 -362 0
-365 849 0
-365 362 0
366 -31 -7 0
-366 31 0
-366 7 0
367 -366 -11 0
-367 366 0
-367 11 0
368 -850 -365 0
-368 850 0
-368 365 0
369 -12 -7 0
-369 12 0
-369 7 0
370 -369 -736 0
-370 369 0
-370 736 0
371 -851 -368 0
-371 851 0
-371 368 0
372 -33 -723 0
-372 33 0
-372 723 0
373 -372 -811 0
-373 372 0
-373 811 0
374 -852 -371 0
-374 852 0
-374 371 0
375 -39 -831 0
-375 39 0
-375 831 0
376 -375 -701 0
-376 375 0
-376 701 0
377 -853 -374 0
-377 853 0
-377 374 0
378 -26 -5 0
-378 26 0
-378 5 0
379 -378 -50 0
-379 378 0
-379 50 0
380 -854 -377 0
-380 854 0
-380 377 0
381 -722 -706 0
-381 722 0
-381 706 0
382 -381 -776 0
-382 381 0
-382 776 0
383 -855 -380 0
-383 855 0
-383 380 0
384 -236 -37 0
-384 236 0
-384 37 0
385 -856 -383 0
-385 856 0
-385 383 0
386 -28 -698 0
-386 28 0
-386 698 0
387 -386 -30 0
-387 386 0
-387 30 0
388 -857 -385 0
-388 857 0
-388 385 0
389 -18 -5 0
-389 18 0
-389 5 0
390 -389 -3 0
-390 389 0
-390 3 0
391 -858 -388 0
-391 858 0
-391 388 0
392 -282 -740 0
-392 282 0
-392 740 0
393 -859 -391 0
-393 859 0
-393 391 0
394 -46 -33 0
-394 46 0
-394 33 0
395 -394 -703 0
-395 394 0
-395 703 0
396 -860 -393 0
-396 860 0
-396 393 0
397 -840 -41 0
-397 840 0
-397 41 0
398 -397 -29 0
-398 397 0
-398 29 0
399 -861 -396 0
-399 861 0
-399 396 0
400 -758 -742 0
-400 758 0
-400 742 0
401 -400 -28 0
-401 400 0
-401 28 0
402 -862 -399 0
-402 862 0
-402 399 0
403 -42 -731 0
-403 42 0
-403 731 0
404 -403 -710 0
-404 403 0
-404 710 0
405 -863 -402 0
-405 863 0
-405 402 0
406 -41 -18 0
-406 41 0
-406 18 0
407 -406 -47 0
-407 406 0
-407 47 0
408 -864 -405 0
-408 864 0
-408 405 0
409 -776 -710 0
-409 776 0
-409 710 0
410 -409 -773 0
-410 409 0
-410 773 0
411 -865 -408 0
-411 865 0
-411 408 0
412 -784 -26 0
-412 784 0
-412 26 0
413 -412 -21 0
-413 412 0
-413 21 0
414 -866 -411 0
-414 866 0
-414 411 0
415 -38 -21 0
-415 38 0
-415 21 0
416 -415 -30 0
-416 415 0
-416 30 0
417 -867 -414 0
-417 867 0
-417 414 0
418 -795 -708 0
-418 795 0
-418 708 0
419 -418 -703 0
-419 418 0
-419 703 0
420 -868 -417 0
-420 868 0
-420 417 0
421 -43 -37 0
-421 43 0
-421 37 0
422 -421 -816 0
-422 421 0
-422 816 0
423 -869 -420 0
-423 869 0
-423 420 0
424 -32 -702 0
-424 32 0
-424 702 0
425 -424 -790 0
-425 424 0
-425 790 0
426 -870 -423 0
-426 870 0
-426 423 0
427 -740 -696 0
-427 740 0
-427 696 0
428 -427 -49 0
-428 427 0
-428 49 0
429 -871 -426 0
-429 871 0
-429 426 0
430 -33 -730 0
-430 33 0
-430 730 0
431 -430 -24 0
-431 430 0
-431 24 0
432 -872 -429 0
-432 872 0
-432 429 0
433 -27 -723 0
-433 27 0
-433 723 0
434 -433 -16 0
-434 433 0
-434 16 0
435 -873 -432 0
-435 873 0
-435 432 0
436 -33 -19 0
-436 33 0
-436 19 0
437 -436 -17 0
-437 436 0
-437 17 0
438 -874 -435 0
-438 874 0
-438 435 0
439 -758 -736 0
-439 758 0
-439 736 0
440 -439 -756 0
-440 439 0
-440 756 0
441 -875 -438 0
-441 875 0
-441 438 0
442 -766 -20 0
-442 766 0
-442 20 0
443 -442 -703 0
-443 442 0
-443 703 0
444 -876 -441 0
-444 876 0
-444 441 0
445 -45 -22 0
-445 45 0
-445 22 0
446 -445 -829 0
-446 445 0
-446 829 0
447 -877 -444 0
-447 877 0
-447 444 0
448 -42 -18 0
-448 42 0
-448 18 0
449 -448 -14 0
-449 448 0
-449 14 0
450 -878 -447 0
-450 878 0
-450 447 0
451 -31 -710 0
-451 31 0
-451 710 0
452 -451 -879 0
-452 451 0
-452 879 0
453 -880 -450 0
-453 880 0
-453 450 0
454 -47 -782 0
-454 47 0
-454 782 0
455 -454 -27 0
-455 454 0
-455 27 0
456 -881 -453 0
-456 881 0
-456 453 0
457 -747 -740 0
-457 747 0
-457 740 0
458 -457 -754 0
-458 457 0
-458 754 0
459 -882 -456 0
-459 882 0
-459 456 0
460 -44 -702 0
-460 44 0
-460 702 0
461 -460 -9 0
-461 460 0
-461 9 0
462 -883 -459 0
-462 883 0
-462 459 0
463 -46 -15 0
-463 46 0
-463 15 0
464 -463 -13 0
-464 463 0
-464 13 0
465 -884 -462 0
-465 884 0
-465 462 0
466 -42 -31 0
-466 42 0
-466 31 0
467 -466 -816 0
-467 466 0
-467 816 0
468 -885 -465 0
-468 885 0
-468 465 0
469 -747 -6 0
-469 747 0
-469 6 0
470 -469 -30 0
-470 469 0
-470 30 0
471 -886 -468 0
-471 886 0
-471 468 0
472 -38 -736 0
-472 38 0
-472 736 0
473 -472 -44 0
-473 472 0
-473 44 0
474 -887 -471 0
-474 887 0
-474 471 0
475 -43 -734 0
-475 43 0
-475 734 0
476 -475 -17 0
-476 475 0
-476 17 0
477 -888 -474 0
-477 888 0
-477 474 0
478 -820 -726 0
-478 820 0
-478 726 0
479 -478 -773 0
-479 478 0
-479 773 0
480 -889 -477 0
-480 889 0
-480 477 0
481 -820 -840 0
-481 820 0
-481 840 0
482 -481 -3 0
-482 481 0
-482 3 0
483 -890 -480 0
-483 890 0
-483 480 0
484 -27 -20 0
-484 27 0
-484 20 0
485 -484 -811 0
-485 484 0
-485 811 0
486 -891 -483 0
-486 891 0
-486 483 0
487 -722 -18 0
-487 722 0
-487 18 0
488 -487 -49 0
-488 487 0
-488 49 0
489 -892 -486 0
-489 892 0
-489 486 0
490 -744 -6 0
-490 744 0
-490 6 0
491 -490 -720 0
-491 490 0
-491 720 0
492 -893 -489 0
-492 893 0
-492 489 0
493 -840 -790 0
-493 840 0
-493 790 0
494 -493 -717 0
-494 493 0
-494 717 0
495 -894 -492 0
-495 894 0
-495 492 0
496 -829 -15 0
-496 829 0
-496 15 0
497 -496 -754 0
-497 496 0
-497 754 0
498 -895 -495 0
-498 895 0
-498 495 0
499 -36 -730 0
-499 36 0
-499 730 0
500 -499 -27 0
-500 499 0
-500 27 0
501 -896 -498 0
-501 896 0
-501 498 0
502 -793 -31 0
-502 793 0
-502 31 0
503 -502 -15 0
-503 502 0
-503 15 0
504 -897 -501 0
-504 897 0
-504 501 0
505 -490 -14 0
-505 490 0
-505 14 0
506 -898 -504 0
-506 898 0
-506 504 0
507 -44 -19 0
-507 44 0
-507 19 0
508 -507 -790 0
-508 507 0
-508 790 0
509 -899 -506 0
-509 899 0
-509 506 0
510 -25 -16 0
-510 25 0
-510 16 0
511 -510 -829 0
-511 510 0
-511 829 0
512 -900 -509 0
-512 900 0
-512 509 0
513 -730 -722 0
-513 730 0
-513 722 0
514 -513 -28 0
-514 513 0
-514 28 0
515 -901 -512 0
-515 901 0
-515 512 0
516 -730 -28 0
-516 730 0
-516 28 0
517 -516 -11 0
-517 516 0
-517 11 0
518 -902 -515 0
-518 902 0
-518 515 0
519 -744 -726 0
-519 744 0
-519 726 0
520 -519 -769 0
-520 519 0
-520 769 0
521 -903 -518 0
-521 903 0
-521 518 0
522 -45 -773 0
-522 45 0
-522 773 0
523 -522 -13 0
-523 522 0
-523 13 0
524 -904 -521 0
-524 904 0
-524 521 0
525 -782 -6 0
-525 782 0
-525 6 0
526 -525 -8 0
-526 525 0
-526 8 0
527 -905 -524 0
-527 905 0
-527 524 0
528 -42 -32 0
-528 42 0
-528 32 0
529 -528 -734 0
-529 528 0
-529 734 0
530 -906 -527 0
-530 906 0
-530 527 0
531 -50 -36 0
-531 50 0
-531 36 0
532 -531 -816 0
-532 531 0
-532 816 0
533 -907 -530 0
-533 907 0
-533 530 0
534 -38 -15 0
-534 38 0
-534 15 0
535 -534 -816 0
-535 534 0
-535 816 0
536 -908 -533 0
-536 908 0
-536 533 0
537 -744 -705 0
-537 744 0
-537 705 0
538 -537 -35 0
-538 537 0
-538 35 0
539 -909 -536 0
-539 909 0
-539 536 0
540 -20 -19 0
-540 20 0
-540 19 0
541 -540 -46 0
-541 540 0
-541 46 0
542 -910 -539 0
-542 910 0
-542 539 0
543 -911 -754 0
-543 911 0
-543 754 0
544 -543 -9 0
-544 543 0
-544 9 0
545 -912 -542 0
-545 912 0
-545 542 0
546 -15 -4 0
-546 15 0
-546 4 0
547 -546 -728 0
-547 546 0
-547 728 0
548 -913 -545 0
-548 913 0
-548 545 0
549 -45 -736 0
-549 45 0
-549 736 0
550 -549 -773 0
-550 549 0
-550 773 0
551 -914 -548 0
-551 914 0
-551 548 0
552 -829 -720 0
-552 829 0
-552 720 0
553 -552 -33 0
-553 552 0
-553 33 0
554 -915 -551 0
-554 915 0
-554 551 0
555 -751 -756 0
-555 751 0
-555 756 0
556 -555 -48 0
-556 555 0
-556 48 0
557 -916 -554 0
-557 916 0
-557 554 0
558 -731 -25 0
-558 731 0
-558 25 0
559 -558 -698 0
-559 558 0
-559 698 0
560 -917 -557 0
-560 917 0
-560 557 0
561 -18 -701 0
-561 18 0
-561 701 0
562 -561 -726 0
-562 561 0
-562 726 0
563 -918 -560 0
-563 918 0
-563 560 0
564 -42 -726 0
-564 42 0
-564 726 0
565 -564 -766 0
-565 564 0
-565 766 0
566 -919 -563 0
-566 919 0
-566 563 0
567 -879 -15 0
-567 879 0
-567 15 0
568 -567 -911 0
-568 567 0
-568 911 0
569 -920 -566 0
-569 920 0
-569 566 0
570 -840 -2 0
-570 840 0
-570 2 0
571 -570 -776 0
-571 570 0
-571 776 0
572 -921 -569 0
-572 921 0
-572 569 0
573 -36 -27 0
-573 36 0
-573 27 0
574 -573 -17 0
-574 573 0
-574 17 0
575 -922 -572 0
-575 922 0
-575 572 0
576 -34 -20 0
-576 34 0
-576 20 0
577 -576 -47 0
-577 576 0
-577 47 0
578 -923 -575 0
-578 923 0
-578 575 0
579 -782 -742 0
-579 782 0
-579 742 0
580 -579 -35 0
-580 579 0
-580 35 0
581 -924 -578 0
-581 924 0
-581 578 0
582 -734 -702 0
-582 734 0
-582 702 0
583 -582 -769 0
-583 582 0
-583 769 0
584 -925 -581 0
-584 925 0
-584 581 0
585 -40 -3 0
-585 40 0
-585 3 0
586 -585 -756 0
-586 585 0
-586 756 0
587 -926 -584 0
-587 926 0
-587 584 0
588 -26 -701 0
-588 26 0
-588 701 0
589 -588 -840 0
-589 588 0
-589 840 0
590 -927 -587 0
-590 927 0
-590 587 0
591 -754 -8 0
-591 754 0
-591 8 0
592 -591 -50 0
-592 591 0
-592 50 0
593 -928 -590 0
-593 928 0
-593 590 0
594 -747 -26 0
-594 747 0
-594 26 0
595 -594 -11 0
-595 594 0
-595 11 0
596 -929 -593 0
-596 929 0
-596 593 0
597 -23 -2 0
-597 23 0
-597 2 0
598 -597 -811 0
-598 597 0
-598 811 0
599 -930 -596 0
-599 930 0
-599 596 0
600 -820 -10 0
-600 820 0
-600 10 0
601 -600 -23 0
-601 600 0
-601 23 0
602 -931 -599 0
-602 931 0
-602 599 0
603 -14 -10 0
-603 14 0
-603 10 0
604 -603 -8 0
-604 603 0
-604 8 0
605 -932 -602 0
-605 932 0
-605 602 0
606 -879 -701 0
-606 879 0
-606 701 0
607 -606 -776 0
-607 606 0
-607 776 0
608 -933 -605 0
-608 933 0
-608 605 0
609 -723 -8 0
-609 723 0
-609 8 0
610 -609 -726 0
-610 609 0
-610 726 0
611 -934 -608 0
-611 934 0
-611 608 0
612 -793 -12 0
-612 793 0
-612 12 0
613 -612 -776 0
-613 612 0
-613 776 0
614 -935 -611 0
-614 935 0
-614 611 0
615 -740 -13 0
-615 740 0
-615 13 0
616 -615 -50 0
-616 615 0
-616 50 0
617 -936 -614 0
-617 936 0
-617 614 0
618 -747 -706 0
-618 747 0
-618 706 0
619 -618 -754 0
-619 618 0
-619 754 0
620 -937 -617 0
-620 937 0
-620 617 0
621 -46 -17 0
-621 46 0
-621 17 0
622 -621 -30 0
-622 621 0
-622 30 0
623 -938 -620 0
-623 938 0
-623 620 0
624 -744 -702 0
-624 744 0
-624 702 0
625 -624 -38 0
-625 624 0
-625 38 0
626 -939 -623 0
-626 939 0
-626 623 0
627 -734 -20 0
-627 734 0
-627 20 0
628 -627 -816 0
-628 627 0
-628 816 0
629 -940 -626 0
-629 940 0
-629 626 0
630 -744 -698 0
-630 744 0
-630 698 0
631 -630 -722 0
-631 630 0
-631 722 0
632 -941 -629 0
-632 941 0
-632 629 0
633 -831 -742 0
-633 831 0
-633 742 0
634 -633 -730 0
-634 633 0
-634 730 0
635 -942 -632 0
-635 942 0
-635 632 0
636 -36 -18 0
-636 36 0
-636 18 0
637 -636 -714 0
-637 636 0
-637 714 0
638 -943 -635 0
-638 943 0
-638 635 0
639 -26 -742 0
-639 26 0
-639 742 0
640 -639 -811 0
-640 639 0
-640 811 0
641 -944 -638 0
-641 944 0
-641 638 0
642 -38 -36 0
-642 38 0
-642 36 0
643 -642 -3 0
-643 642 0
-643 3 0
644 -945 -641 0
-644 945 0
-644 641 0
645 -579 -766 0
-645 579 0
-645 766 0
646 -946 -644 0
-646 946 0
-646 644 0
647 -47 -32 0
-647 47 0
-647 32 0
648 -647 -8 0
-648 647 0
-648 8 0
649 -947 -646 0
-649 947 0
-649 646 0
650 -25 -715 0
-650 25 0
-650 715 0
651 -650 -17 0
-651 650 0
-651 17 0
652 -948 -649 0
-652 948 0
-652 649 0
653 -723 -715 0
-653 723 0
-653 715 0
654 -653 -16 0
-654 653 0
-654 16 0
655 -949 -652 0
-655 949 0
-655 652 0
656 -740 -20 0
-656 740 0
-656 20 0
657 -656 -773 0
-657 656 0
-657 773 0
658 -950 -655 0
-658 950 0
-658 655 0
659 -38 -27 0
-659 38 0
-659 27 0
660 -659 -19 0
-660 659 0
-660 19 0
661 -951 -658 0
-661 951 0
-661 658 0
662 -40 -6 0
-662 40 0
-662 6 0
663 -662 -758 0
-663 662 0
-663 758 0
664 -952 -661 0
-664 952 0
-664 661 0
665 -502 -24 0
-665 502 0
-665 24 0
666 -953 -664 0
-666 953 0
-666 664 0
667 -23 -5 0
-667 23 0
-667 5 0
668 -667 -17 0
-668 667 0
-668 17 0
669 -954 -666 0
-669 954 0
-669 666 0
670 -829 -39 0
-670 829 0
-670 39 0
671 -670 -795 0
-671 670 0
-671 795 0
672 -955 -669 0
-672 955 0
-672 669 0
673 -712 -12 0
-673 712 0
-673 12 0
674 -673 -37 0
-674 673 0
-674 37 0
675 -956 -672 0
-675 956 0
-675 672 0
676 -37 -11 0
-676 37 0
-676 11 0
677 -676 -21 0
-677 676 0
-677 21 0
678 -957 -675 0
-678 957 0
-678 675 0
679 -829 -776 0
-679 829 0
-679 776 0
680 -679 -816 0
-680 679 0
-680 816 0
681 -958 -678 0
-681 958 0
-681 678 0
682 -720 -7 0
-682 720 0
-682 7 0
683 -682 -790 0
-683 682 0
-683 790 0
684 -959 -681 0
-684 959 0
-684 681 0
685 -782 -22 0
-685 782 0
-685 22 0
686 -685 -14 0
-686 685 0
-686 14 0
687 -960 -684 0
-687 960 0
-687 684 0
688 -34 -7 0
-688 34 0
-688 7 0
689 -688 -35 0
-689 688 0
-689 35 0
690 -961 -687 0
-690 961 0
-690 687 0
691 -740 -710 0
-691 740 0
-691 710 0
692 -691 -840 0
-692 691 0
-692 840 0
693 -962 -690 0
-693 962 0
-693 690 0
694 -62 -703 0
-694 62 0
-694 703 0
695 -963 -693 0
-695 963 0
-695 693 0
-696 -1 0
696 1 0
-697 -3 0
697 3 0
-698 -6 0
698 6 0
-699 -54 0
699 54 0
-700 -52 0
700 52 0
-701 -8 0
701 8 0
-702 -7 0
702 7 0
-703 -9 0
703 9 0
-704 -57 0
704 57 0
-705 -10 0
705 10 0
-706 -5 0
706 5 0
-707 -60 0
707 60 0
-708 -12 0
708 12 0
-709 -63 0
709 63 0
-710 -15 0
710 15 0
-711 -66 0
711 66 0
-712 -16 0
712 16 0
-713 -69 0
713 69 0
-714 -19 0
714 19 0
-715 -18 0
715 18 0
-716 -72 0
716 72 0
-717 -21 0
717 21 0
-718 -75 0
718 75 0
-719 -78 0
719 78 0
-720 -14 0
720 14 0
-721 -81 0
721 81 0
-722 -26 0
722 26 0
-723 -25 0
723 25 0
-724 -84 0
724 84 0
-725 -87 0
725 87 0
-726 -27 0
726 27 0
-727 -90 0
727 90 0
-728 -28 0
728 28 0
-729 -93 0
729 93 0
-730 -32 0
730 32 0
-731 -31 0
731 31 0
-732 -96 0
732 96 0
-733 -99 0
733 99 0
-734 -34 0
734 34 0
-735 -102 0
735 102 0
-736 -4 0
736 4 0
-737 -105 0
737 105 0
-738 -108 0
738 108 0
-739 -111 0
739 111 0
-740 -38 0
740 38 0
-741 -114 0
741 114 0
-742 -20 0
742 20 0
-743 -117 0
743 117 0
-744 -39 0
744 39 0
-745 -120 0
745 120 0
-746 -123 0
746 123 0
-747 -41 0
747 41 0
-748 -126 0
748 126 0
-749 -129 0
749 129 0
-750 -132 0
750 132 0
-751 -42 0
751 42 0
-752 -135 0
752 135 0
-753 -138 0
753 138 0
-754 -13 0
754 13 0
-755 -141 0
755 141 0
-756 -35 0
756 35 0
-757 -144 0
757 144 0
-758 -43 0
758 43 0
-759 -147 0
759 147 0
-760 -150 0
760 150 0
-761 -153 0
761 153 0
-762 -156 0
762 156 0
-763 -159 0
763 159 0
-764 -162 0
764 162 0
-765 -165 0
765 165 0
-766 -24 0
766 24 0
-767 -168 0
767 168 0
-768 -171 0
768 171 0
-769 -45 0
769 45 0
-770 -174 0
770 174 0
-771 -177 0
771 177 0
-772 -180 0
772 180 0
-773 -33 0
773 33 0
-774 -183 0
774 183 0
-775 -186 0
775 186 0
-776 -29 0
776 29 0
-777 -189 0
777 189 0
-778 -192 0
778 192 0
-779 -2 0
779 2 0
-780 -195 0
780 195 0
-781 -198 0
781 198 0
-782 -40 0
782 40 0
-783 -201 0
783 201 0
-784 -48 0
784 48 0
-785 -204 0
785 204 0
-786 -207 0
786 207 0
-787 -210 0
787 210 0
-788 -213 0
788 213 0
-789 -216 0
789 216 0
-790 -23 0
790 23 0
-791 -219 0
791 219 0
-792 -222 0
792 222 0
-793 -36 0
793 36 0
-794 -225 0
794 225 0
-795 -17 0
795 17 0
-796 -228 0
796 228 0
-797 -231 0
797 231 0
-798 -234 0
798 234 0
-799 -237 0
799 237 0
-800 -240 0
800 240 0
-801 -242 0
801 242 0
-802 -245 0
802 245 0
-803 -248 0
803 248 0
-804 -251 0
804 251 0
-805 -254 0
805 254 0
-806 -257 0
806 257 0
-807 -260 0
807 260 0
-808 -263 0
808 263 0
-809 -266 0
809 266 0
-810 -269 0
810 269 0
-811 -11 0
811 11 0
-812 -272 0
812 272 0
-813 -275 0
813 275 0
-814 -278 0
814 278 0
-815 -280 0
815 280 0
-816 -30 0
816 30 0
-817 -283 0
817 283 0
-818 -50 0
818 50 0
-819 -286 0
819 286 0
-820 -47 0
820 47 0
-821 -289 0
821 289 0
-822 -292 0
822 292 0
-823 -295 0
823 295 0
-824 -298 0
824 298 0
-825 -301 0
825 301 0
-826 -304 0
826 304 0
-827 -307 0
827 307 0
-828 -310 0
828 310 0
-829 -49 0
829 49 0
-830 -313 0
830 313 0
-831 -22 0
831 22 0
-832 -316 0
832 316 0
-833 -319 0
833 319 0
-834 -322 0
834 322 0
-835 -325 0
835 325 0
-836 -328 0
836 328 0
-837 -331 0
837 331 0
-838 -334 0
838 334 0
-839 -337 0
839 337 0
-840 -44 0
840 44 0
-841 -340 0
841 340 0
-842 -343 0
842 343 0
-843 -346 0
843 346 0
-844 -349 0
844 349 0
-845 -352 0
845 352 0
-846 -355 0
846 355 0
-847 -358 0
847 358 0
-848 -361 0
848 361 0
-849 -364 0
849 364 0
-850 -367 0
850 367 0
-851 -370 0
851 370 0
-852 -373 0
852 373 0
-853 -376 0
853 376 0
-854 -379 0
854 379 0
-855 -382 0
855 382 0
-856 -384 0
856 384 0
-857 -387 0
857 387 0
-858 -390 0
858 390 0
-859 -392 0
859 392 0
-860 -395 0
860 395 0
-861 -398 0
861 398 0
-862 -401 0
862 401 0
-863 -404 0
863 404 0
-864 -407 0
864 407 0
-865 -410 0
865 410 0
-866 -413 0
866 413 0
-867 -416 0
867 416 0
-868 -419 0
868 419 0
-869 -422 0
869 422 0
-870 -425 0
870 425 0
-871 -428 0
871 428 0
-872 -431 0
872 431 0
-873 -434 0
873 434 0
-874 -437 0
874 437 0
-875 -440 0
875 440 0
-876 -443 0
876 443 0
-877 -446 0
877 446 0
-878 -449 0
878 449 0
-879 -46 0
879 46 0
-880 -452 0
880 452 0
-881 -455 0
881 455 0
-882 -458 0
882 458 0
-883 -461 0
883 461 0
-884 -464 0
884 464 0
-885 -467 0
885 467 0
-886 -470 0
886 470 0
-887 -473 0
887 473 0
-888 -476 0
888 476 0
-889 -479 0
889 479 0
-890 -482 0
890 482 0
-891 -485 0
891 485 0
-892 -488 0
892 488 0
-893 -491 0
893 491 0
-894 -494 0
894 494 0
-895 -497 0
895 497 0
-896 -500 0
896 500 0
-897 -503 0
897 503 0
-898 -505 0
898 505 0
-899 -508 0
899 508 0
-900 -511 0
900 511 0
-901 -514 0
901 514 0
-902 -517 0
902 517 0
-903 -520 0
903 520 0
-904 -523 0
904 523 0
-905 -526 0
905 526 0
-906 -529 0
906 529 0
-907 -532 0
907 532 0
-908 -535 0
908 535 0
-909 -538 0
909 538 0
-910 -541 0
910 541 0
-911 -37 0
911 37 0
-912 -544 0
912 544 0
-913 -547 0
913 547 0
-914 -550 0
914 550 0
-915 -553 0
915 553 0
-916 -556 0
916 556 0
-917 -559 0
917 559 0
-918 -562 0
918 562 0
-919 -565 0
919 565 0
-920 -568 0
920 568 0
-921 -571 0
921 571 0
-922 -574 0
922 574 0
-923 -577 0
923 577 0
-924 -580 0
924 580 0
-925 -583 0
925 583 0
-926 -586 0
926 586 0
-927 -589 0
927 589 0
-928 -592 0
928 592 0
-929 -595 0
929 595 0
-930 -598 0
930 598 0
-931 -601 0
931 601 0
-932 -604 0
932 604 0
-933 -607 0
933 607 0
-934 -610 0
934 610 0
-935 -613 0
935 613 0
-936 -616 0
936 616 0
-937 -619 0
937 619 0
-938 -622 0
938 622 0
-939 -625 0
939 625 0
-940 -628 0
940 628 0
-941 -631 0
941 631 0
-942 -634 0
942 634 0
-943 -637 0
943 637 0
-944 -640 0
944 640 0
-945 -643 0
945 643 0
-946 -645 0
946 645 0
-947 -648 0
947 648 0
-948 -651 0
948 651 0
-949 -654 0
949 654 0
-950 -657 0
950 657 0
-951 -660 0
951 660 0
-952 -663 0
952 663 0
-953 -665 0
953 665 0
-954 -668 0
954 668 0
-955 -671 0
955 671 0
-956 -674 0
956 674 0
-957 -677 0
957 677 0
-958 -680 0
958 680 0
-959 -683 0
959 683 0
-960 -686 0
960 686 0
-961 -689 0
961 689 0
-962 -692 0
962 692 0
-963 -694 0
963 694 0
695 0
